7312.0
[[10. 11.  5.  4.  9.  8.  2.  1.  3.  6.  7.  0.]
 [10. 11.  5.  4.  9.  8.  2.  1.  3.  6.  7.  0.]
 [10. 11.  5.  4.  9.  8.  2.  1.  3.  6.  7.  0.]
 [10. 11.  5.  4.  9.  8.  2.  1.  3.  6.  7.  0.]
 [10. 11.  5.  4.  9.  8.  2.  1.  3.  6.  7.  0.]]
